c This is a CNF SAT formula in the DIMACS CNF format,
c produced with the bc2cnf translator by Tommi Junttila;
c see http://users.ics.aalto.fi/tjunttil/circuits/index.html
c phi_Gamma <-> 1
c phi_T_feature_det <-> 1
c phi_T_transitions <-> 1
c phi_T_transitions_consistency <-> 1
c phi_T <-> 1
c phi_sim_leaves <-> 1
c phi_sim_transition <-> 1
c phi_sim <-> 1
c FORMULA <-> 1
c pi_1_9 <-> 2
c pi_0_9 <-> 11
c pi_1_8 <-> 22
c pi_0_8 <-> 33
c pi_1_7 <-> 48
c pi_0_7 <-> 54
c pi_1_6 <-> 71
c pi_0_6 <-> 79
c pi_1_5 <-> 93
c pi_0_5 <-> 102
c pi_1_4 <-> 120
c pi_0_4 <-> 126
c pi_1_3 <-> 140
c pi_0_3 <-> 142
c pi_1_2 <-> 161
c pi_0_2 <-> 162
c pi_1_1 <-> 175
c pi_0_1 <-> 179
c pi_1_0 <-> 195
c pi_0_0 <-> 199
c alp_approved_1_0 <-> 215
c alp_approved_0_1 <-> 215
c alp_approved_0_2 <-> 215
c alp_approved_0_3 <-> 215
c alp_approved_0_4 <-> 215
c alp_approved_0_5 <-> 215
c alp_approved_1_6 <-> 215
c alp_approved_1_7 <-> 215
c alp_approved_1_8 <-> 215
c alp_approved_0_9 <-> 215
c alp_approved_1_1 <-> 216
c alp_approved_1_2 <-> 216
c alp_approved_1_3 <-> 216
c alp_approved_1_4 <-> 216
c alp_approved_1_5 <-> 216
c alp_approved_1_9 <-> 216
c approved_P100 <-> 216
c alp_approved_0_0 <-> 217
c alp_approved_0_6 <-> 217
c alp_approved_0_7 <-> 217
c alp_approved_0_8 <-> 217
c approved_P0 <-> 217
c tau_1_3_approved_1 <-> 254
c tau_1_3_approved_0 <-> 255
c tau_1_2_approved_1 <-> 256
c tau_1_2_approved_0 <-> 257
c tau_1_1_approved_1 <-> 258
c tau_1_1_approved_0 <-> 259
c tau_1_0_approved_1 <-> 260
c tau_1_0_approved_0 <-> 261
c tau_0_3_approved_1 <-> 299
c tau_0_3_approved_0 <-> 300
c tau_0_3_1 <-> 301
c tau_0_2_approved_1 <-> 302
c tau_0_2_approved_0 <-> 303
c tau_0_2_1 <-> 304
c tau_0_1_approved_1 <-> 305
c tau_0_1_approved_0 <-> 306
c tau_0_1_1 <-> 307
c tau_0_0_approved_1 <-> 308
c tau_0_0_approved_0 <-> 309
c tau_0_0_1 <-> 310
c lam_1_credit_score <-> 324
c lam_1_dependents <-> 326
c lam_1_monthly_income <-> 328
c lam_1_age <-> 329
c lam_0_credit_score <-> 343
c lam_0_dependents <-> 345
c lam_0_monthly_income <-> 347
c lam_0_age <-> 348
p wcnf 348 986 11  
11 1 0
11 2 -3 0
11 2 -4 0
11 -2 4 3 0
11 -3 9 0
11 -3 324 0
11 3 -324 -9 0
11 4 -5 0
11 4 -6 0
11 -4 6 5 0
11 -5 9 0
11 -5 326 0
11 5 -326 -9 0
11 6 -7 0
11 6 -8 0
11 -6 8 7 0
11 -7 9 0
11 -7 328 0
11 7 -328 -9 0
11 -8 9 0
11 -8 329 0
11 8 -329 -9 0
11 -9 10 0
11 -9 -259 0
11 9 259 -10 0
11 10 258 0
11 10 -216 0
11 -10 216 -258 0
11 11 -12 0
11 11 -13 0
11 -11 13 12 0
1 11 0
11 -12 18 0
11 -12 343 0
11 12 -343 -18 0
11 13 -14 0
11 13 -15 0
11 -13 15 14 0
11 -14 18 0
11 -14 345 0
11 14 -345 -18 0
11 15 -16 0
11 15 -17 0
11 -15 17 16 0
11 -16 18 0
11 -16 347 0
11 16 -347 -18 0
11 -17 18 0
11 -17 348 0
11 17 -348 -18 0
11 -18 19 0
11 -18 20 0
11 18 -20 -19 0
11 19 305 0
11 19 -216 0
11 -19 216 -305 0
11 -20 -306 0
11 -20 21 0
11 20 -21 306 0
11 21 -2 0
11 21 307 0
11 -21 -307 2 0
11 22 -23 0
11 22 -26 0
11 -22 26 23 0
11 -23 24 0
11 -23 324 0
11 23 -324 -24 0
11 -24 -256 0
11 -24 25 0
11 24 -25 256 0
11 25 257 0
11 25 -217 0
11 -25 217 -257 0
11 26 -27 0
11 26 -28 0
11 -26 28 27 0
11 -27 31 0
11 -27 326 0
11 27 -326 -31 0
11 28 -29 0
11 28 -30 0
11 -28 30 29 0
11 -29 31 0
11 -29 328 0
11 29 -328 -31 0
11 -30 31 0
11 -30 329 0
11 30 -329 -31 0
11 -31 -260 0
11 -31 32 0
11 31 -32 260 0
11 32 261 0
11 32 -217 0
11 -32 217 -261 0
11 33 -34 0
11 33 -39 0
11 -33 39 34 0
1 33 0
11 -34 35 0
11 -34 343 0
11 34 -343 -35 0
11 -35 -302 0
11 -35 36 0
11 35 -36 302 0
11 -36 37 0
11 -36 38 0
11 36 -38 -37 0
11 37 303 0
11 37 -217 0
11 -37 217 -303 0
11 38 -22 0
11 38 304 0
11 -38 -304 22 0
11 39 -40 0
11 39 -41 0
11 -39 41 40 0
11 -40 44 0
11 -40 345 0
11 40 -345 -44 0
11 41 -42 0
11 41 -43 0
11 -41 43 42 0
11 -42 44 0
11 -42 347 0
11 42 -347 -44 0
11 -43 44 0
11 -43 348 0
11 43 -348 -44 0
11 -44 -308 0
11 -44 45 0
11 44 -45 308 0
11 -45 46 0
11 -45 47 0
11 45 -47 -46 0
11 46 309 0
11 46 -217 0
11 -46 217 -309 0
11 47 -22 0
11 47 310 0
11 -47 -310 22 0
11 48 -23 0
11 48 -49 0
11 -48 49 23 0
11 49 -27 0
11 49 -50 0
11 -49 50 27 0
11 50 -29 0
11 50 -51 0
11 -50 51 29 0
11 -51 52 0
11 -51 329 0
11 51 -329 -52 0
11 -52 -254 0
11 -52 53 0
11 52 -53 254 0
11 53 255 0
11 53 -217 0
11 -53 217 -255 0
11 54 -55 0
11 54 -59 0
11 -54 59 55 0
1 54 0
11 -55 56 0
11 -55 343 0
11 55 -343 -56 0
11 -56 -302 0
11 -56 57 0
11 56 -57 302 0
11 -57 37 0
11 -57 58 0
11 57 -58 -37 0
11 58 304 0
11 58 -48 0
11 -58 48 -304 0
11 59 -60 0
11 59 -61 0
11 -59 61 60 0
11 -60 63 0
11 -60 345 0
11 60 -345 -63 0
11 61 -62 0
11 61 -66 0
11 -61 66 62 0
11 -62 63 0
11 -62 347 0
11 62 -347 -63 0
11 -63 -308 0
11 -63 64 0
11 63 -64 308 0
11 -64 46 0
11 -64 65 0
11 64 -65 -46 0
11 65 310 0
11 65 -48 0
11 -65 48 -310 0
11 -66 67 0
11 -66 348 0
11 66 -348 -67 0
11 -67 -299 0
11 -67 68 0
11 67 -68 299 0
11 -68 69 0
11 -68 70 0
11 68 -70 -69 0
11 69 300 0
11 69 -217 0
11 -69 217 -300 0
11 70 -48 0
11 70 301 0
11 -70 -301 48 0
11 71 -72 0
11 71 -73 0
11 -71 73 72 0
11 -72 31 0
11 -72 324 0
11 72 -324 -31 0
11 73 -74 0
11 73 -75 0
11 -73 75 74 0
11 -74 77 0
11 -74 326 0
11 74 -326 -77 0
11 75 -30 0
11 75 -76 0
11 -75 76 30 0
11 -76 77 0
11 -76 328 0
11 76 -328 -77 0
11 -77 -258 0
11 -77 78 0
11 77 -78 258 0
11 78 259 0
11 78 -217 0
11 -78 217 -259 0
11 79 -80 0
11 79 -81 0
11 -79 81 80 0
1 79 0
11 -80 90 0
11 -80 343 0
11 80 -343 -90 0
11 81 -82 0
11 81 -83 0
11 -81 83 82 0
11 -82 85 0
11 -82 345 0
11 82 -345 -85 0
11 83 -84 0
11 83 -89 0
11 -83 89 84 0
11 -84 85 0
11 -84 347 0
11 84 -347 -85 0
11 -85 -305 0
11 -85 86 0
11 85 -86 305 0
11 -86 87 0
11 -86 88 0
11 86 -88 -87 0
11 87 306 0
11 87 -217 0
11 -87 217 -306 0
11 88 307 0
11 88 -71 0
11 -88 71 -307 0
11 -89 90 0
11 -89 348 0
11 89 -348 -90 0
11 -90 -308 0
11 -90 91 0
11 90 -91 308 0
11 -91 46 0
11 -91 92 0
11 91 -92 -46 0
11 92 310 0
11 92 -71 0
11 -92 71 -310 0
11 93 -94 0
11 93 -97 0
11 -93 97 94 0
11 -94 95 0
11 -94 324 0
11 94 -324 -95 0
11 -95 -257 0
11 -95 96 0
11 95 -96 257 0
11 96 256 0
11 96 -216 0
11 -96 216 -256 0
11 97 -5 0
11 97 -98 0
11 -97 98 5 0
11 98 -7 0
11 98 -99 0
11 -98 99 7 0
11 -99 100 0
11 -99 329 0
11 99 -329 -100 0
11 -100 -255 0
11 -100 101 0
11 100 -101 255 0
11 101 254 0
11 101 -216 0
11 -101 216 -254 0
11 102 -103 0
11 102 -108 0
11 -102 108 103 0
1 102 0
11 -103 104 0
11 -103 343 0
11 103 -343 -104 0
11 -104 105 0
11 -104 106 0
11 104 -106 -105 0
11 105 302 0
11 105 -216 0
11 -105 216 -302 0
11 -106 -303 0
11 -106 107 0
11 106 -107 303 0
11 107 304 0
11 107 -93 0
11 -107 93 -304 0
11 108 -109 0
11 108 -110 0
11 -108 110 109 0
11 -109 112 0
11 -109 345 0
11 109 -345 -112 0
11 110 -111 0
11 110 -115 0
11 -110 115 111 0
11 -111 112 0
11 -111 347 0
11 111 -347 -112 0
11 -112 19 0
11 -112 113 0
11 112 -113 -19 0
11 -113 -306 0
11 -113 114 0
11 113 -114 306 0
11 114 307 0
11 114 -93 0
11 -114 93 -307 0
11 -115 116 0
11 -115 348 0
11 115 -348 -116 0
11 -116 117 0
11 -116 118 0
11 116 -118 -117 0
11 117 299 0
11 117 -216 0
11 -117 216 -299 0
11 -118 -300 0
11 -118 119 0
11 118 -119 300 0
11 119 301 0
11 119 -93 0
11 -119 93 -301 0
11 120 -121 0
11 120 -122 0
11 -120 122 121 0
11 -121 124 0
11 -121 324 0
11 121 -324 -124 0
11 122 -6 0
11 122 -123 0
11 -122 123 6 0
11 -123 124 0
11 -123 326 0
11 123 -326 -124 0
11 -124 -261 0
11 -124 125 0
11 124 -125 261 0
11 125 260 0
11 125 -216 0
11 -125 216 -260 0
11 126 -127 0
11 126 -128 0
11 -126 128 127 0
1 126 0
11 -127 130 0
11 -127 343 0
11 127 -343 -130 0
11 128 -129 0
11 128 -134 0
11 -128 134 129 0
11 -129 130 0
11 -129 345 0
11 129 -345 -130 0
11 -130 131 0
11 -130 132 0
11 130 -132 -131 0
11 131 308 0
11 131 -216 0
11 -131 216 -308 0
11 -132 -309 0
11 -132 133 0
11 132 -133 309 0
11 133 310 0
11 133 -120 0
11 -133 120 -310 0
11 134 -135 0
11 134 -136 0
11 -134 136 135 0
11 -135 137 0
11 -135 347 0
11 135 -347 -137 0
11 -136 137 0
11 -136 348 0
11 136 -348 -137 0
11 -137 19 0
11 -137 138 0
11 137 -138 -19 0
11 -138 -306 0
11 -138 139 0
11 138 -139 306 0
11 139 307 0
11 139 -120 0
11 -139 120 -307 0
11 140 -94 0
11 140 -141 0
11 -140 141 94 0
11 141 -98 0
11 141 -123 0
11 -141 123 98 0
11 142 -143 0
11 142 -147 0
11 -142 147 143 0
1 142 0
11 -143 144 0
11 -143 343 0
11 143 -343 -144 0
11 -144 105 0
11 -144 145 0
11 144 -145 -105 0
11 -145 -303 0
11 -145 146 0
11 145 -146 303 0
11 146 304 0
11 146 -140 0
11 -146 140 -304 0
11 147 -148 0
11 147 -152 0
11 -147 152 148 0
11 -148 149 0
11 -148 345 0
11 148 -345 -149 0
11 -149 131 0
11 -149 150 0
11 149 -150 -131 0
11 -150 -309 0
11 -150 151 0
11 150 -151 309 0
11 151 310 0
11 151 -140 0
11 -151 140 -310 0
11 152 -153 0
11 152 -157 0
11 -152 157 153 0
11 -153 154 0
11 -153 347 0
11 153 -347 -154 0
11 -154 19 0
11 -154 155 0
11 154 -155 -19 0
11 -155 -306 0
11 -155 156 0
11 155 -156 306 0
11 156 307 0
11 156 -140 0
11 -156 140 -307 0
11 -157 158 0
11 -157 348 0
11 157 -348 -158 0
11 -158 117 0
11 -158 159 0
11 158 -159 -117 0
11 -159 -300 0
11 -159 160 0
11 159 -160 300 0
11 160 301 0
11 160 -140 0
11 -160 140 -301 0
11 161 -4 0
11 161 -121 0
11 -161 121 4 0
11 162 -163 0
11 162 -167 0
11 -162 167 163 0
1 162 0
11 -163 164 0
11 -163 343 0
11 163 -343 -164 0
11 -164 131 0
11 -164 165 0
11 164 -165 -131 0
11 -165 -309 0
11 -165 166 0
11 165 -166 309 0
11 166 310 0
11 166 -161 0
11 -166 161 -310 0
11 167 -168 0
11 167 -169 0
11 -167 169 168 0
11 -168 172 0
11 -168 345 0
11 168 -345 -172 0
11 169 -170 0
11 169 -171 0
11 -169 171 170 0
11 -170 172 0
11 -170 347 0
11 170 -347 -172 0
11 -171 172 0
11 -171 348 0
11 171 -348 -172 0
11 -172 19 0
11 -172 173 0
11 172 -173 -19 0
11 -173 -306 0
11 -173 174 0
11 173 -174 306 0
11 174 307 0
11 174 -161 0
11 -174 161 -307 0
11 175 -94 0
11 175 -176 0
11 -175 176 94 0
11 176 -123 0
11 176 -177 0
11 -176 177 123 0
11 177 -7 0
11 177 -178 0
11 -177 178 7 0
11 -178 95 0
11 -178 329 0
11 178 -329 -95 0
11 179 -180 0
11 179 -181 0
11 -179 181 180 0
1 179 0
11 -180 192 0
11 -180 343 0
11 180 -343 -192 0
11 181 -182 0
11 181 -186 0
11 -181 186 182 0
11 -182 183 0
11 -182 345 0
11 182 -345 -183 0
11 -183 131 0
11 -183 184 0
11 183 -184 -131 0
11 -184 -309 0
11 -184 185 0
11 184 -185 309 0
11 185 310 0
11 185 -175 0
11 -185 175 -310 0
11 186 -187 0
11 186 -191 0
11 -186 191 187 0
11 -187 188 0
11 -187 347 0
11 187 -347 -188 0
11 -188 19 0
11 -188 189 0
11 188 -189 -19 0
11 -189 -306 0
11 -189 190 0
11 189 -190 306 0
11 190 307 0
11 190 -175 0
11 -190 175 -307 0
11 -191 192 0
11 -191 348 0
11 191 -348 -192 0
11 -192 105 0
11 -192 193 0
11 192 -193 -105 0
11 -193 -303 0
11 -193 194 0
11 193 -194 303 0
11 194 304 0
11 194 -175 0
11 -194 175 -304 0
11 195 -23 0
11 195 -196 0
11 -195 196 23 0
11 196 -74 0
11 196 -197 0
11 -196 197 74 0
11 197 -29 0
11 197 -198 0
11 -197 198 29 0
11 -198 77 0
11 -198 329 0
11 198 -329 -77 0
11 199 -200 0
11 199 -204 0
11 -199 204 200 0
1 199 0
11 -200 201 0
11 -200 343 0
11 200 -343 -201 0
11 -201 -302 0
11 -201 202 0
11 201 -202 302 0
11 -202 37 0
11 -202 203 0
11 202 -203 -37 0
11 203 304 0
11 203 -195 0
11 -203 195 -304 0
11 204 -205 0
11 204 -206 0
11 -204 206 205 0
11 -205 212 0
11 -205 345 0
11 205 -345 -212 0
11 206 -207 0
11 206 -211 0
11 -206 211 207 0
11 -207 208 0
11 -207 347 0
11 207 -347 -208 0
11 -208 -308 0
11 -208 209 0
11 208 -209 308 0
11 -209 46 0
11 -209 210 0
11 209 -210 -46 0
11 210 310 0
11 210 -195 0
11 -210 195 -310 0
11 -211 212 0
11 -211 348 0
11 211 -348 -212 0
11 -212 -305 0
11 -212 213 0
11 212 -213 305 0
11 -213 87 0
11 -213 214 0
11 213 -214 -87 0
11 214 307 0
11 214 -195 0
11 -214 195 -307 0
11 -215 0
11 218 324 0
11 218 -219 0
11 -218 219 -324 0
11 218 0
11 -219 -254 0
11 -219 -255 0
11 219 255 254 0
11 220 326 0
11 220 -221 0
11 -220 221 -326 0
11 220 0
11 -221 -254 0
11 -221 222 0
11 221 -222 254 0
11 -222 -255 0
11 -222 223 0
11 222 -223 255 0
11 -223 -256 0
11 -223 -257 0
11 223 257 256 0
11 224 -221 0
11 224 328 0
11 -224 -328 221 0
11 224 0
11 225 343 0
11 225 -226 0
11 -225 226 -343 0
11 225 0
11 -226 -299 0
11 -226 227 0
11 226 -227 299 0
11 -227 -300 0
11 -227 -301 0
11 227 301 300 0
11 228 345 0
11 228 -229 0
11 -228 229 -345 0
11 228 0
11 -229 -299 0
11 -229 230 0
11 229 -230 299 0
11 -230 -300 0
11 -230 231 0
11 230 -231 300 0
11 -231 -301 0
11 -231 232 0
11 231 -232 301 0
11 -232 -302 0
11 -232 233 0
11 232 -233 302 0
11 -233 -303 0
11 -233 -304 0
11 233 304 303 0
11 234 -229 0
11 234 347 0
11 -234 -347 229 0
11 234 0
11 235 324 0
11 235 -236 0
11 -235 236 -324 0
11 235 0
11 -236 237 0
11 -236 240 0
11 236 -240 -237 0
11 237 -238 0
11 237 -239 0
11 -237 239 238 0
11 -238 -257 0
11 -238 256 0
11 238 -256 257 0
11 -239 -256 0
11 -239 257 0
11 239 -257 256 0
11 -240 241 0
11 -240 244 0
11 240 -244 -241 0
11 241 -242 0
11 241 -243 0
11 -241 243 242 0
11 -242 -259 0
11 -242 258 0
11 242 -258 259 0
11 -243 -258 0
11 -243 259 0
11 243 -259 258 0
11 244 -245 0
11 244 -246 0
11 -244 246 245 0
11 -245 -261 0
11 -245 260 0
11 245 -260 261 0
11 -246 -260 0
11 -246 261 0
11 246 -261 260 0
11 247 326 0
11 247 -240 0
11 -247 240 -326 0
11 247 0
11 248 328 0
11 248 -240 0
11 -248 240 -328 0
11 248 0
11 249 329 0
11 249 -250 0
11 -249 250 -329 0
11 249 0
11 -250 236 0
11 -250 251 0
11 250 -251 -236 0
11 251 -252 0
11 251 -253 0
11 -251 253 252 0
11 -252 -255 0
11 -252 254 0
11 252 -254 255 0
11 -253 -254 0
11 -253 255 0
11 253 -255 254 0
11 262 343 0
11 262 -263 0
11 -262 263 -343 0
11 262 0
11 -263 264 0
11 -263 271 0
11 263 -271 -264 0
11 264 -265 0
11 264 -269 0
11 -264 269 265 0
11 265 -266 0
11 265 -267 0
11 -265 267 266 0
11 -266 233 0
11 -266 302 0
11 266 -302 -233 0
11 -267 268 0
11 -267 303 0
11 267 -303 -268 0
11 -268 -302 0
11 -268 -304 0
11 268 304 302 0
11 -269 270 0
11 -269 304 0
11 269 -304 -270 0
11 -270 -302 0
11 -270 -303 0
11 270 303 302 0
11 -271 272 0
11 -271 280 0
11 271 -280 -272 0
11 272 -273 0
11 272 -278 0
11 -272 278 273 0
11 273 -274 0
11 273 -276 0
11 -273 276 274 0
11 -274 275 0
11 -274 305 0
11 274 -305 -275 0
11 -275 -306 0
11 -275 -307 0
11 275 307 306 0
11 -276 277 0
11 -276 306 0
11 276 -306 -277 0
11 -277 -305 0
11 -277 -307 0
11 277 307 305 0
11 -278 279 0
11 -278 307 0
11 278 -307 -279 0
11 -279 -305 0
11 -279 -306 0
11 279 306 305 0
11 280 -281 0
11 280 -286 0
11 -280 286 281 0
11 281 -282 0
11 281 -284 0
11 -281 284 282 0
11 -282 283 0
11 -282 308 0
11 282 -308 -283 0
11 -283 -309 0
11 -283 -310 0
11 283 310 309 0
11 -284 285 0
11 -284 309 0
11 284 -309 -285 0
11 -285 -308 0
11 -285 -310 0
11 285 310 308 0
11 -286 287 0
11 -286 310 0
11 286 -310 -287 0
11 -287 -308 0
11 -287 -309 0
11 287 309 308 0
11 288 345 0
11 288 -271 0
11 -288 271 -345 0
11 288 0
11 289 347 0
11 289 -271 0
11 -289 271 -347 0
11 289 0
11 290 348 0
11 290 -291 0
11 -290 291 -348 0
11 290 0
11 -291 263 0
11 -291 292 0
11 291 -292 -263 0
11 292 -293 0
11 292 -297 0
11 -292 297 293 0
11 293 -294 0
11 293 -295 0
11 -293 295 294 0
11 -294 227 0
11 -294 299 0
11 294 -299 -227 0
11 -295 296 0
11 -295 300 0
11 295 -300 -296 0
11 -296 -299 0
11 -296 -301 0
11 296 301 299 0
11 -297 298 0
11 -297 301 0
11 297 -301 -298 0
11 -298 -299 0
11 -298 -300 0
11 298 300 299 0
11 311 -312 0
11 311 -315 0
11 -311 315 312 0
11 311 0
11 -312 -326 0
11 -312 313 0
11 312 -313 326 0
11 -313 -328 0
11 -313 314 0
11 313 -314 328 0
11 -314 -329 0
11 -314 324 0
11 314 -324 329 0
11 315 -316 0
11 315 -319 0
11 -315 319 316 0
11 -316 -324 0
11 -316 317 0
11 316 -317 324 0
11 -317 -328 0
11 -317 318 0
11 317 -318 328 0
11 -318 -329 0
11 -318 326 0
11 318 -326 329 0
11 319 -320 0
11 319 -323 0
11 -319 323 320 0
11 -320 -324 0
11 -320 321 0
11 320 -321 324 0
11 -321 -326 0
11 -321 322 0
11 321 -322 326 0
11 -322 -329 0
11 -322 328 0
11 322 -328 329 0
11 -323 -324 0
11 -323 325 0
11 323 -325 324 0
11 -325 -326 0
11 -325 327 0
11 325 -327 326 0
11 -327 -328 0
11 -327 329 0
11 327 -329 328 0
11 330 -331 0
11 330 -334 0
11 -330 334 331 0
11 330 0
11 -331 -345 0
11 -331 332 0
11 331 -332 345 0
11 -332 -347 0
11 -332 333 0
11 332 -333 347 0
11 -333 -348 0
11 -333 343 0
11 333 -343 348 0
11 334 -335 0
11 334 -338 0
11 -334 338 335 0
11 -335 -343 0
11 -335 336 0
11 335 -336 343 0
11 -336 -347 0
11 -336 337 0
11 336 -337 347 0
11 -337 -348 0
11 -337 345 0
11 337 -345 348 0
11 338 -339 0
11 338 -342 0
11 -338 342 339 0
11 -339 -343 0
11 -339 340 0
11 339 -340 343 0
11 -340 -345 0
11 -340 341 0
11 340 -341 345 0
11 -341 -348 0
11 -341 347 0
11 341 -347 348 0
11 -342 -343 0
11 -342 344 0
11 342 -344 343 0
11 -344 -345 0
11 -344 346 0
11 344 -346 345 0
11 -346 -347 0
11 -346 348 0
11 346 -348 347 0
